[2026-03-24T00:53:53.974Z] Pipeline "set_big_5-7_big_5-7_s002_g002" → 2026_03_24_00_53_53_set_big_5-7_big_5-7_s002_g002_max.sol
Set parameter WLSAccessID
Set parameter WLSSecret
Set parameter LicenseID to value 2792458
Set parameter LogFile to value "gurobi.log"
Using license file /root/gurobi.lic
Academic license 2792458 - for non-commercial use only - registered to an___@studenti.unipg.it

Gurobi Optimizer version 13.0.1 build v13.0.1rc0 (linux64 - "Ubuntu 24.04.4 LTS")
Copyright (c) 2026, Gurobi Optimization, LLC

Warning: Duplicate section found (read 'binary') - Is a variable name equal to an LP file format keyword?
Warning: Duplicate section found (read 'binary') - Is a variable name equal to an LP file format keyword?
Warning: Duplicate section found (read 'binary') - Is a variable name equal to an LP file format keyword?
Warning: Duplicate section found (read 'binary') - Is a variable name equal to an LP file format keyword?
Warning: Duplicate section found (read 'binary') - Is a variable name equal to an LP file format keyword?
Warning: Duplicate section found (read 'binary') - Is a variable name equal to an LP file format keyword?
Warning: Duplicate section found (read 'binary') - Is a variable name equal to an LP file format keyword?
Warning: Duplicate section found (read 'binary') - Is a variable name equal to an LP file format keyword?
Warning: Duplicate section found (read 'binary') - Is a variable name equal to an LP file format keyword?
Warning: Duplicate section found (read 'binary') - Is a variable name equal to an LP file format keyword?
Warning: Further warnings of this type will be omitted.
Read LP format model from file /root/bgw/data/uploads/2026_03_24_00_53_53_set_big_5-7_big_5-7_s002_g002_max.lp
Reading time = 0.00 seconds
: 1546 rows, 225 columns, 4619 nonzeros

Using Gurobi shared library /opt/gurobi1301/linux64/lib/libgurobi.so.13.0.1

CPU model: AMD EPYC-Genoa Processor, instruction set [SSE2|AVX|AVX2|AVX512]
Thread count: 16 physical cores, 16 logical processors, using up to 16 threads

Academic license 2792458 - for non-commercial use only - registered to an___@studenti.unipg.it
Optimize a model with 1546 rows, 225 columns and 4619 nonzeros (Max)
Model fingerprint: 0xf081d8b6
Model has 42 linear objective coefficients
Variable types: 58 continuous, 167 integer (167 binary)
Coefficient statistics:
  Matrix range     [1e+00, 2e+01]
  Objective range  [1e+00, 1e+00]
  Bounds range     [1e+00, 1e+00]
  RHS range        [1e+00, 2e+01]

Found heuristic solution: objective 42.0000000
Presolve removed 390 rows and 84 columns
Presolve time: 0.01s
Presolved: 1156 rows, 141 columns, 3546 nonzeros
Variable types: 0 continuous, 141 integer (135 binary)
Found heuristic solution: objective 102.0000000

Root relaxation: objective 2.670000e+02, 45 iterations, 0.00 seconds (0.00 work units)

    Nodes    |    Current Node    |     Objective Bounds      |     Work
 Expl Unexpl |  Obj  Depth IntInf | Incumbent    BestBd   Gap | It/Node Time

     0     0  267.00000    0   14  102.00000  267.00000   162%     -    0s
H    0     0                     117.0000000  267.00000   128%     -    0s
     0     0  267.00000    0   20  117.00000  267.00000   128%     -    0s
     0     0  267.00000    0   20  117.00000  267.00000   128%     -    0s
     0     0  267.00000    0   19  117.00000  267.00000   128%     -    0s
     0     0  267.00000    0   19  117.00000  267.00000   128%     -    0s
     0     0  267.00000    0   15  117.00000  267.00000   128%     -    0s
     0     0  267.00000    0   20  117.00000  267.00000   128%     -    0s
     0     0  267.00000    0   14  117.00000  267.00000   128%     -    0s
     0     0  252.00000    0   20  117.00000  252.00000   115%     -    0s
     0     0  252.00000    0   21  117.00000  252.00000   115%     -    0s
     0     0  252.00000    0   14  117.00000  252.00000   115%     -    0s
     0     0  252.00000    0   21  117.00000  252.00000   115%     -    0s
     0     0  252.00000    0   21  117.00000  252.00000   115%     -    0s
     0     0  252.00000    0   14  117.00000  252.00000   115%     -    0s
     0     0  249.85714    0   20  117.00000  249.85714   114%     -    0s
     0     0  247.71429    0   20  117.00000  247.71429   112%     -    0s
     0     0  247.71429    0   20  117.00000  247.71429   112%     -    0s
     0     0  237.00000    0   20  117.00000  237.00000   103%     -    0s
     0     0  237.00000    0   20  117.00000  237.00000   103%     -    0s
     0     2  237.00000    0   20  117.00000  237.00000   103%     -    0s

Cutting planes:
  Gomory: 3
  Lift-and-project: 4
  Cover: 39
  MIR: 4
  Inf proof: 73
  Zero half: 8
  Mod-K: 1

Explored 5811 nodes (204013 simplex iterations) in 0.95 seconds (1.09 work units)
Thread count was 16 (of 16 available processors)

Solution count 3: 117 102 42 

Optimal solution found (tolerance 1.00e-04)
Best objective 1.170000000000e+02, best bound 1.170000000000e+02, gap 0.0000%

Wrote result file '/root/bgw/data/results/2026_03_24_00_53_53_set_big_5-7_big_5-7_s002_g002_max.sol'

